NAME : Or117-14-f.834518.tour
COMMENT : Length = 834518
COMMENT : Found by LKH-3 [Keld Helsgaun] Fri Jun  6 12:54:57 2025
TYPE : TOUR
DIMENSION : 145
TOUR_SECTION
9
50
122
81
15
104
41
82
37
58
57
88
124
103
98
125
85
79
59
90
126
71
76
49
113
62
51
130
128
131
40
32
87
129
63
75
19
94
43
86
35
97
83
99
48
55
23
107
38
84
52
114
115
77
93
36
73
56
33
66
111
47
44
60
34
95
106
112
78
109
67
119
140
10
141
11
72
21
80
30
142
12
16
137
7
118
42
92
105
54
116
39
64
123
25
70
45
91
89
117
110
102
53
108
96
100
101
68
69
65
127
138
8
20
28
145
1
46
132
2
133
3
31
134
4
24
143
13
29
61
121
27
144
14
22
135
5
74
17
120
136
6
18
26
139
-1
EOF
